c File  p_hat1500-1.clq
c
c Source: P. Soriano and M. Gendreau at  patrick@crt.umontreal.ca
c
c Reference: p-hat graphs are generated with the p-hat generator
c 	      which is a generalization of the classical uniform
c 	      random graph generator.
c 	      Graphs generated with p-hat have wider node degree spread
c 	      and larger cliques than uniform graphs.
c
c NOTE: September 23, 1993 Corrected corrupted file at DIMACS.
c
c
c Generation parameters: 
c 	n =   1500 a =  0.00  b =  0.50  Expected density =  0.25
c	Seed =      31513       Real density =  0.253
c
p edge  1500    284923	
e 4 1
e 5 3
e 5 4
e 6 2
e 6 3
e 6 4
e 6 5
e 7 1
e 8 2
e 8 4
e 8 6
e 9 8
e 10 1
e 10 2
e 10 6
e 11 1
e 11 2
e 11 4
e 11 5
e 11 10
e 12 1
e 12 5
e 12 6
e 12 7
e 12 8
e 12 11
e 13 1
e 13 5
e 13 8
e 13 10
e 13 12
e 14 2
e 14 3
e 14 11
e 15 1
e 15 2
e 15 9
e 15 13
e 16 8
e 16 11
e 16 13
e 17 4
e 18 2
e 18 6
e 19 1
e 19 13
e 20 5
e 20 8
e 20 9
e 20 11
e 21 3
e 21 13
e 22 1
e 22 2
e 22 4
e 22 5
e 23 1
e 23 5
e 23 10
e 23 13
e 23 18
e 23 19
e 23 22
e 24 6
e 24 10
e 24 11
e 24 16
e 24 23
e 25 1
e 25 6
e 25 9
e 25 17
e 26 1
e 26 2
e 26 6
e 26 7
e 26 9
e 26 12
e 26 13
e 26 15
e 26 19
e 26 22
e 26 25
e 27 1
e 27 7
e 27 11
e 27 15
e 28 5
e 28 8
e 28 11
e 28 19
e 28 20
e 28 23
e 28 24
e 29 2
e 29 6
e 29 16
e 30 2
e 30 4
e 30 6
e 30 7
e 30 8
e 30 10
e 30 12
e 30 13
e 30 14
e 30 24
e 30 26
e 30 29
e 31 1
e 31 4
e 31 5
e 31 6
e 31 9
e 31 11
e 31 14
e 31 15
e 31 16
e 31 17
e 31 18
e 31 19
e 31 20
e 31 23
e 31 26
e 32 4
e 32 6
e 32 8
e 32 9
e 32 11
e 32 31
e 33 2
e 33 3
e 33 5
e 33 6
e 33 7
e 33 11
e 33 13
e 33 16
e 33 17
e 33 20
e 33 28
e 34 5
e 34 9
e 35 2
e 35 6
e 35 10
e 35 11
e 35 12
e 35 15
e 35 17
e 35 19
e 35 22
e 35 23
e 35 29
e 35 31
e 36 2
e 36 4
e 36 8
e 36 10
e 37 1
e 37 2
e 37 5
e 37 6
e 37 7
e 37 8
e 37 13
e 37 16
e 37 20
e 37 21
e 37 25
e 37 29
e 37 31
e 38 2
e 38 10
e 38 19
e 38 20
e 38 26
e 38 27
e 38 29
e 38 35
e 38 37
e 39 1
e 39 2
e 39 4
e 39 5
e 39 6
e 39 8
e 39 9
e 39 16
e 39 20
e 39 23
e 39 24
e 39 25
e 39 27
e 39 29
e 39 31
e 39 34
e 39 35
e 39 36
e 39 37
e 39 38
e 40 2
e 40 4
e 40 6
e 40 7
e 40 8
e 40 12
e 40 14
e 40 23
e 40 26
e 40 35
e 40 38
e 40 39
e 41 5
e 41 9
e 41 12
e 41 13
e 41 14
e 41 19
e 41 21
e 41 26
e 41 34
e 41 39
e 42 1
e 42 5
e 42 7
e 42 8
e 42 9
e 42 11
e 42 13
e 42 16
e 42 28
e 42 29
e 42 33
e 42 39
e 42 41
e 43 1
e 43 2
e 43 6
e 43 7
e 43 8
e 43 11
e 43 13
e 43 20
e 43 24
e 43 27
e 43 29
e 44 2
e 44 5
e 44 11
e 44 31
e 44 34
e 44 37
e 44 38
e 44 39
e 45 11
e 45 12
e 45 14
e 45 15
e 45 19
e 45 20
e 45 21
e 45 30
e 45 31
e 45 35
e 45 37
e 45 39
e 45 43
e 45 44
e 46 2
e 46 4
e 46 5
e 46 8
e 46 12
e 46 24
e 46 30
e 46 43
e 47 6
e 47 9
e 47 10
e 47 11
e 47 12
e 47 13
e 47 15
e 47 20
e 47 28
e 47 31
e 47 39
e 47 43
e 47 46
e 48 10
e 48 11
e 48 23
e 48 31
e 48 35
e 48 40
e 49 6
e 49 13
e 49 15
e 49 21
e 49 31
e 49 43
e 49 44
e 50 4
e 50 5
e 50 13
e 50 15
e 50 17
e 50 23
e 50 26
e 50 36
e 50 40
e 50 43
e 50 46
e 50 47
e 51 2
e 51 3
e 51 6
e 51 7
e 51 11
e 51 16
e 51 17
e 51 22
e 51 27
e 51 29
e 51 37
e 51 38
e 51 39
e 51 43
e 51 45
e 51 48
e 52 9
e 52 10
e 52 11
e 52 12
e 52 14
e 52 35
e 52 42
e 52 46
e 52 47
e 52 50
e 52 51
e 53 3
e 53 4
e 53 5
e 53 8
e 53 9
e 53 14
e 53 22
e 53 30
e 53 35
e 53 36
e 53 38
e 53 43
e 53 45
e 53 47
e 53 50
e 53 51
e 54 1
e 54 2
e 54 10
e 54 11
e 54 28
e 54 30
e 54 31
e 54 38
e 54 50
e 55 1
e 55 6
e 55 10
e 55 11
e 55 19
e 55 24
e 55 26
e 55 32
e 55 46
e 55 47
e 56 2
e 56 9
e 56 10
e 56 11
e 56 15
e 56 16
e 56 20
e 56 23
e 56 25
e 56 27
e 56 31
e 56 46
e 56 47
e 56 49
e 56 51
e 57 1
e 57 6
e 57 13
e 57 26
e 57 30
e 57 33
e 57 39
e 58 8
e 58 11
e 58 25
e 58 31
e 58 39
e 58 47
e 59 10
e 59 20
e 59 29
e 59 42
e 59 43
e 60 5
e 60 7
e 60 9
e 60 12
e 60 13
e 60 14
e 60 15
e 60 17
e 60 20
e 60 31
e 60 35
e 60 42
e 60 50
e 60 55
e 61 1
e 61 5
e 61 8
e 61 11
e 61 12
e 61 14
e 61 15
e 61 28
e 61 31
e 61 37
e 61 43
e 61 45
e 61 51
e 62 16
e 62 33
e 62 38
e 62 42
e 62 45
e 62 47
e 62 56
e 62 59
e 62 60
e 63 2
e 63 3
e 63 7
e 63 10
e 63 21
e 63 23
